\ Model Timetables
\ LP format - for model browsing. Use MPS format to capture full model detail.
Minimize
 
Subject To
 R0: x_c0001_(0,0) + x_c0001_(0,1) + x_c0001_(1,0) + x_c0001_(1,1) = 2
 R1: x_c0002_(0,0) + x_c0002_(0,1) + x_c0002_(1,0) + x_c0002_(1,1) = 2
 R2: x_c0003_(0,0) + x_c0003_(0,1) + x_c0003_(1,0) + x_c0003_(1,1) = 2
 R3: x_c0004_(0,0) + x_c0004_(0,1) + x_c0004_(1,0) + x_c0004_(1,1) = 1
 R4: y_c0001_(0,_) + y_c0001_(1,_) >= 2
 R5: y_c0002_(0,_) + y_c0002_(1,_) >= 1
 R6: y_c0003_(0,_) + y_c0003_(1,_) >= 1
 R7: y_c0004_(0,_) + y_c0004_(1,_) >= 1
 R8: - x_c0001_(0,0) - x_c0001_(0,1) + y_c0001_(0,_) <= 0
 R9: - x_c0001_(1,0) - x_c0001_(1,1) + y_c0001_(1,_) <= 0
 R10: - x_c0002_(0,0) - x_c0002_(0,1) + y_c0002_(0,_) <= 0
 R11: - x_c0002_(1,0) - x_c0002_(1,1) + y_c0002_(1,_) <= 0
 R12: - x_c0003_(0,0) - x_c0003_(0,1) + y_c0003_(0,_) <= 0
 R13: - x_c0003_(1,0) - x_c0003_(1,1) + y_c0003_(1,_) <= 0
 R14: - x_c0004_(0,0) - x_c0004_(0,1) + y_c0004_(0,_) <= 0
 R15: - x_c0004_(1,0) - x_c0004_(1,1) + y_c0004_(1,_) <= 0
 R16: x_c0001_(0,0) + x_c0002_(0,0) + x_c0003_(0,0) <= 1
 R17: x_c0001_(0,1) + x_c0002_(0,1) + x_c0003_(0,1) <= 1
 R18: x_c0001_(1,0) + x_c0002_(1,0) + x_c0003_(1,0) <= 1
 R19: x_c0001_(1,1) + x_c0002_(1,1) + x_c0003_(1,1) <= 1
 R20: x_c0004_(0,0) <= 1
 R21: x_c0004_(0,1) <= 1
 R22: x_c0004_(1,0) <= 1
 R23: x_c0004_(1,1) <= 1
 R24: x_c0001_(0,0) + x_c0002_(0,0) + x_c0003_(0,0) <= 1
 R25: x_c0001_(0,1) + x_c0002_(0,1) + x_c0003_(0,1) <= 1
 R26: x_c0001_(1,0) + x_c0002_(1,0) + x_c0003_(1,0) <= 1
 R27: x_c0001_(1,1) + x_c0002_(1,1) + x_c0003_(1,1) <= 1
 R28: x_c0002_(0,0) + x_c0004_(0,0) <= 1
 R29: x_c0002_(0,1) + x_c0004_(0,1) <= 1
 R30: x_c0002_(1,0) + x_c0004_(1,0) <= 1
 R31: x_c0002_(1,1) + x_c0004_(1,1) <= 1
 R32: x_c0001_(0,1) = 0
Bounds
Binaries
 x_c0001_(0,0) x_c0001_(0,1) x_c0001_(1,0) x_c0001_(1,1) x_c0002_(0,0)
 x_c0002_(0,1) x_c0002_(1,0) x_c0002_(1,1) x_c0003_(0,0) x_c0003_(0,1)
 x_c0003_(1,0) x_c0003_(1,1) x_c0004_(0,0) x_c0004_(0,1) x_c0004_(1,0)
 x_c0004_(1,1) y_c0001_(0,_) y_c0001_(1,_) y_c0002_(0,_) y_c0002_(1,_)
 y_c0003_(0,_) y_c0003_(1,_) y_c0004_(0,_) y_c0004_(1,_)
End
